(set-info :source |printed by MathSAT|)
(declare-fun mem_init_s () Int)
(declare-fun valid_s () Int)
(declare-fun call_synapse.flby2 () Int)
(declare-fun call_synapse.ite13 () Int)
(declare-fun call_synapse.ite7 () Int)
(declare-fun param_e_s2 () Bool)
(declare-fun call_synapse.ite3 () Int)
(declare-fun call_synapse.ite8 () Int)
(declare-fun call_synapse.garde_s1 () Bool)
(declare-fun call_synapse.ite12 () Int)
(declare-fun call_synapse.ite18 () Int)
(declare-fun env () Bool)
(declare-fun invalid_s () Int)
(declare-fun call_synapse.invalid_s () Int)
(declare-fun call_synapse.ite4 () Int)
(declare-fun call_synapse.ite () Int)
(declare-fun call_synapse.ite11 () Int)
(declare-fun call_synapse.ite16 () Int)
(declare-fun call_synapse.mem_init_s () Int)
(declare-fun call_synapse.ite15 () Int)
(declare-fun call_synapse.ite10 () Int)
(declare-fun dirty_s () Int)
(declare-fun param_e_s1 () Bool)
(declare-fun call_synapse.flby4 () Int)
(declare-fun call_synapse.flby () Int)
(declare-fun call_synapse.garde_s2 () Bool)
(declare-fun call_synapse.garde_s3 () Bool)
(declare-fun _OK_ () Bool)
(declare-fun call_excludes3.excludes () Bool)
(declare-fun param_e_s3 () Bool)
(declare-fun call_synapse.ite9 () Int)
(declare-fun call_synapse.flby3 () Int)
(declare-fun call_synapse.dirty_s () Int)
(declare-fun param_init_invalid_s () Int)
(declare-fun call_Sofar.Sofar () Bool)
(declare-fun call_synapse.ite5 () Int)
(declare-fun call_synapse.ite14 () Int)
(declare-fun call_synapse.ite17 () Int)
(declare-fun call_synapse.ite6 () Int)
(declare-fun call_synapse.valid_s () Int)
(declare-fun call_synapse.ite2 () Int)
(declare-fun call_Sofar.flby () Bool)
(define-fun .def_557 () Bool (= call_Sofar.flby call_Sofar.Sofar))
(define-fun .def_552 () Bool (and param_e_s3 param_e_s2))
(define-fun .def_550 () Bool (and param_e_s3 param_e_s1))
(define-fun .def_549 () Bool (and param_e_s1 param_e_s2))
(define-fun .def_551 () Bool (or .def_549 .def_550))
(define-fun .def_553 () Bool (or .def_551 .def_552))
(define-fun .def_554 () Bool (not .def_553))
(define-fun .def_555 () Bool (= call_excludes3.excludes .def_554))
(define-fun .def_547 () Bool (= call_synapse.flby call_synapse.mem_init_s))
(define-fun .def_545 () Bool (= call_synapse.flby4 call_synapse.dirty_s))
(define-fun .def_543 () Bool (= call_synapse.flby3 call_synapse.valid_s))
(define-fun .def_541 () Bool (= call_synapse.flby2 call_synapse.invalid_s))
(define-fun .def_537 () Bool (= call_synapse.ite16 call_synapse.ite17))
(define-fun .def_538 () Bool (or param_e_s2 .def_537))
(define-fun .def_534 () Bool (= call_synapse.ite14 call_synapse.ite17))
(define-fun .def_525 () Bool (not param_e_s2))
(define-fun .def_535 () Bool (or .def_525 .def_534))
(define-fun .def_531 () Bool (= call_synapse.ite10 call_synapse.ite11))
(define-fun .def_532 () Bool (or param_e_s2 .def_531))
(define-fun .def_528 () Bool (= call_synapse.ite8 call_synapse.ite11))
(define-fun .def_529 () Bool (or .def_525 .def_528))
(define-fun .def_524 () Bool (= call_synapse.ite5 call_synapse.ite2))
(define-fun .def_526 () Bool (or .def_524 .def_525))
(define-fun .def_520 () Bool (= call_synapse.ite4 call_synapse.ite5))
(define-fun .def_522 () Bool (or .def_520 param_e_s2))
(define-fun .def_527 () Bool (and .def_522 .def_526))
(define-fun .def_530 () Bool (and .def_527 .def_529))
(define-fun .def_533 () Bool (and .def_530 .def_532))
(define-fun .def_536 () Bool (and .def_533 .def_535))
(define-fun .def_539 () Bool (and .def_536 .def_538))
(define-fun .def_516 () Bool (= call_synapse.ite18 call_synapse.ite17))
(define-fun .def_517 () Bool (or param_e_s1 .def_516))
(define-fun .def_512 () Bool (= call_synapse.ite13 call_synapse.ite18))
(define-fun .def_499 () Bool (not param_e_s1))
(define-fun .def_513 () Bool (or .def_499 .def_512))
(define-fun .def_508 () Bool (= call_synapse.ite12 call_synapse.ite11))
(define-fun .def_509 () Bool (or param_e_s1 .def_508))
(define-fun .def_504 () Bool (= call_synapse.ite7 call_synapse.ite12))
(define-fun .def_505 () Bool (or .def_499 .def_504))
(define-fun .def_498 () Bool (= call_synapse.ite6 call_synapse.ite))
(define-fun .def_500 () Bool (or .def_498 .def_499))
(define-fun .def_494 () Bool (= call_synapse.ite6 call_synapse.ite5))
(define-fun .def_496 () Bool (or .def_494 param_e_s1))
(define-fun .def_501 () Bool (and .def_496 .def_500))
(define-fun .def_506 () Bool (and .def_501 .def_505))
(define-fun .def_510 () Bool (and .def_506 .def_509))
(define-fun .def_514 () Bool (and .def_510 .def_513))
(define-fun .def_518 () Bool (and .def_514 .def_517))
(define-fun .def_490 () Bool (= env call_Sofar.Sofar))
(define-fun .def_487 () Bool (= call_synapse.mem_init_s mem_init_s))
(define-fun .def_484 () Bool (= dirty_s call_synapse.dirty_s))
(define-fun .def_481 () Bool (= valid_s call_synapse.valid_s))
(define-fun .def_477 () Bool (= invalid_s call_synapse.invalid_s))
(define-fun .def_471 () Bool (<= 2 invalid_s))
(define-fun .def_472 () Bool (not .def_471))
(define-fun .def_468 () Bool (<= 1 dirty_s))
(define-fun .def_469 () Bool (not .def_468))
(define-fun .def_473 () Bool (or .def_469 .def_472))
(define-fun .def_466 () Bool (not env))
(define-fun .def_474 () Bool (or .def_466 .def_473))
(define-fun .def_475 () Bool (= _OK_ .def_474))
(define-fun .def_478 () Bool (and .def_475 .def_477))
(define-fun .def_482 () Bool (and .def_478 .def_481))
(define-fun .def_485 () Bool (and .def_482 .def_484))
(define-fun .def_488 () Bool (and .def_485 .def_487))
(define-fun .def_491 () Bool (and .def_488 .def_490))
(define-fun .def_519 () Bool (and .def_491 .def_518))
(define-fun .def_540 () Bool (and .def_519 .def_539))
(define-fun .def_542 () Bool (and .def_540 .def_541))
(define-fun .def_544 () Bool (and .def_542 .def_543))
(define-fun .def_546 () Bool (and .def_544 .def_545))
(define-fun .def_548 () Bool (and .def_546 .def_547))
(define-fun .def_556 () Bool (and .def_548 .def_555))
(define-fun .def_558 () Bool (and .def_556 .def_557))
(define-fun .def_458 () Bool (<= 0 param_init_invalid_s))
(define-fun .def_460 () Bool (and .def_458 call_excludes3.excludes))
(define-fun .def_462 () Bool (= .def_460 call_Sofar.flby))
(define-fun .def_456 () Bool (= call_synapse.flby4 0))
(define-fun .def_453 () Bool (= call_synapse.flby3 0))
(define-fun .def_450 () Bool (= call_synapse.flby2 call_synapse.mem_init_s))
(define-fun .def_446 () Bool (= param_init_invalid_s call_synapse.flby))
(define-fun .def_440 () Bool (= call_synapse.ite9 0))
(define-fun .def_438 () Bool (not call_synapse.garde_s3))
(define-fun .def_441 () Bool (or .def_438 .def_440))
(define-fun .def_436 () Bool (= call_synapse.ite15 1))
(define-fun .def_439 () Bool (or .def_436 .def_438))
(define-fun .def_442 () Bool (and .def_439 .def_441))
(define-fun .def_432 () Bool (= call_synapse.ite8 0))
(define-fun .def_429 () Bool (not call_synapse.garde_s2))
(define-fun .def_433 () Bool (or .def_429 .def_432))
(define-fun .def_427 () Bool (= call_synapse.ite14 1))
(define-fun .def_430 () Bool (or .def_427 .def_429))
(define-fun .def_434 () Bool (and .def_430 .def_433))
(define-fun .def_423 () Bool (= call_synapse.ite13 0))
(define-fun .def_421 () Bool (not call_synapse.garde_s1))
(define-fun .def_424 () Bool (or .def_421 .def_423))
(define-fun .def_417 () Bool (= call_synapse.ite15 call_synapse.ite16))
(define-fun .def_408 () Bool (not param_e_s3))
(define-fun .def_418 () Bool (or .def_408 .def_417))
(define-fun .def_412 () Bool (= call_synapse.ite3 call_synapse.ite4))
(define-fun .def_413 () Bool (or .def_408 .def_412))
(define-fun .def_406 () Bool (= call_synapse.ite9 call_synapse.ite10))
(define-fun .def_409 () Bool (or .def_406 .def_408))
(define-fun .def_414 () Bool (and .def_409 .def_413))
(define-fun .def_419 () Bool (and .def_414 .def_418))
(define-fun .def_425 () Bool (and .def_419 .def_424))
(define-fun .def_435 () Bool (and .def_425 .def_434))
(define-fun .def_443 () Bool (and .def_435 .def_442))
(define-fun .def_447 () Bool (and .def_443 .def_446))
(define-fun .def_451 () Bool (and .def_447 .def_450))
(define-fun .def_454 () Bool (and .def_451 .def_453))
(define-fun .def_457 () Bool (and .def_454 .def_456))
(define-fun .def_463 () Bool (and .def_457 .def_462))
(define-fun .def_559 () Bool (and .def_463 .def_558))
(assert .def_559)
